p tw 53 85
5 16
5 10
5 22
1 12
6 14
6 20
6 23
6 24
2 20
2 17
2 11
8 9
8 19
4 52
4 13
4 24
42 44
37 46
37 49
37 51
14 19
29 50
29 31
21 53
28 31
28 38
38 42
13 25
13 21
13 22
13 51
41 50
41 44
17 19
32 37
32 42
34 47
22 24
44 47
27 38
27 52
27 35
27 39
27 32
27 44
12 20
12 17
12 19
7 14
3 22
3 16
3 21
3 5
35 46
35 53
48 49
18 23
18 24
31 34
31 49
31 36
11 14
11 12
11 18
11 16
43 46
43 47
43 49
26 37
26 48
26 33
23 25
36 39
36 48
36 50
36 40
30 44
30 48
30 45
30 32
51 53
19 25
47 48
15 22
15 25
